--- Job gams_0064_002_32_04_0.67_05_0.25_0.90_26_problem.txt Start 02/24/21 20:04:24 35.2.0 r33388c4 WEX-WEI x86 64bit/MS Windows
--- Applying:
    C:\Users\MariaSosnovskaya\GAMS35\gmsprmNT.txt
--- GAMS Parameters defined
    Input C:\Users\MariaSosnovskaya\Downloads\WfmGams3\problems\gams_0064_002_32_04_0.67_05_0.25_0.90_26_problem.txt
    ScrDir C:\Users\MariaSosnovskaya\Downloads\WfmGams3\225f\
    SysDir C:\Users\MariaSosnovskaya\GAMS35\
Licensee: GAMS Evaluation License                        S210124/0001AB-GEN
          Sobolev Institute of Mathematics, Discrete Optimization LaDCE1098
          C:\Users\MariaSosnovskaya\GAMS35\gamslice.txt
          Evaluation license: Not for commercial or production use
GAMS 35.2.0   Copyright (C) 1987-2021 GAMS Development. All rights reserved
--- Starting compilation
--- gams_0064_002_32_04_0.67_05_0.25_0.90_26_problem.txt(22) 3 Mb
--- . gams_0064_002_32_04_0.67_05_0.25_0.90_26.inc(6600) 3 Mb
--- gams_0064_002_32_04_0.67_05_0.25_0.90_26_problem.txt(98) 3 Mb
--- Starting execution: elapsed 0:00:00.038
--- gams_0064_002_32_04_0.67_05_0.25_0.90_26_problem.txt(6621) 4 Mb
--- Generating MIP model mymodel
--- gams_0064_002_32_04_0.67_05_0.25_0.90_26_problem.txt(6677) 9 Mb
---   16,769 rows  12,289 columns  56,289 non-zeroes
---   12,288 discrete-columns
--- Executing CPLEX (Solvelink=2): elapsed 0:00:00.162

IBM ILOG CPLEX   35.2.0 r33388c4 Released Jun 02, 2021 WEI x86 64bit/MS Window

--- GAMS/Cplex licensed for continuous and discrete problems.
--- Space for names approximately 0.61 Mb
--- Use option 'names no' to turn use of names off
--- GMO memory 6.31 Mb (peak 6.40 Mb)
--- Dictionary memory 0.00 Mb
--- Cplex 20.1.0.1 link memory 0.43 Mb (peak 1.99 Mb)
--- Starting Cplex

Version identifier: 20.1.0.1 | 2021-04-07 | 3a818710c
CPXPARAM_Advance                                 0
CPXPARAM_Threads                                 1
CPXPARAM_MIP_Display                             4
CPXPARAM_TimeLimit                               3600
CPXPARAM_MIP_Tolerances_AbsMIPGap                0
Generic callback                                 0x50
Tried aggregator 2 times.
MIP Presolve eliminated 8321 rows and 930 columns.
Aggregator did 192 substitutions.
Reduced MIP has 8256 rows, 11168 columns, and 37573 nonzeros.
Reduced MIP has 11168 binaries, 0 generals, 0 SOSs, and 0 indicators.
Presolve time = 0.06 sec. (42.17 ticks)
Probing fixed 920 vars, tightened 0 bounds.
Probing changed sense of 54 constraints.
Probing time = 0.08 sec. (29.60 ticks)
Tried aggregator 16 times.
MIP Presolve eliminated 432 rows and 981 columns.
Aggregator did 432 substitutions.
Reduced MIP has 7392 rows, 9755 columns, and 33087 nonzeros.
Reduced MIP has 9755 binaries, 0 generals, 0 SOSs, and 0 indicators.
Presolve time = 0.64 sec. (315.49 ticks)
Probing time = 0.02 sec. (4.40 ticks)
Tried aggregator 1 time.
Detecting symmetries...
Reduced MIP has 7392 rows, 9755 columns, and 33087 nonzeros.
Reduced MIP has 9755 binaries, 0 generals, 0 SOSs, and 0 indicators.
Presolve time = 0.06 sec. (29.47 ticks)
Probing time = 0.02 sec. (4.40 ticks)
Clique table members: 24297.
MIP emphasis: balance optimality and feasibility.
MIP search method: dynamic search.
Parallel mode: none, using 1 thread.
Tried aggregator 1 time.
No LP presolve or aggregator reductions.
Presolve time = 0.00 sec. (4.30 ticks)
Initializing dual steep norms . . .

Iteration log . . .
Iteration:     1   Dual objective     =          8572.000000
Perturbation started.
Iteration:   101   Dual objective     =          8572.000000
Iteration:   462   Dual objective     =          8571.999878
Iteration:   818   Dual objective     =          8571.999771
Iteration:  1166   Dual objective     =          8571.999665
Iteration:  1523   Dual objective     =          8571.999549
Iteration:  1888   Dual objective     =          8571.999424
Iteration:  2253   Dual objective     =          8571.999307
Iteration:  2605   Dual objective     =          8571.999254
Iteration:  2944   Dual objective     =          8571.999214
Iteration:  3260   Dual objective     =          8571.999189
Iteration:  3545   Dual objective     =          8571.999172
Iteration:  3846   Dual objective     =          8571.999155
Iteration:  4147   Dual objective     =          8571.999141
Iteration:  4415   Dual objective     =          8571.999130
Iteration:  4691   Dual objective     =          8571.999118
Iteration:  4933   Dual objective     =          8571.999109
Iteration:  5147   Dual objective     =          8571.999102
Iteration:  5372   Dual objective     =          8571.999095
Iteration:  5540   Dual objective     =          8571.999090
Iteration:  5748   Dual objective     =          8571.999084
Iteration:  5921   Dual objective     =          8571.999079
Iteration:  6104   Dual objective     =          8571.999073
Iteration:  6238   Dual objective     =          8571.999069
Iteration:  6372   Dual objective     =          8571.999065
Iteration:  6505   Dual objective     =          8571.999061
Iteration:  6637   Dual objective     =          8571.999058
Iteration:  6763   Dual objective     =          8571.999056
Iteration:  6884   Dual objective     =          8571.999054
Iteration:  7015   Dual objective     =          8571.999052
Iteration:  7139   Dual objective     =          8571.999050
Iteration:  7260   Dual objective     =          8571.999049
Iteration:  7384   Dual objective     =          8571.999048
Iteration:  7495   Dual objective     =          8571.999047
Iteration:  7610   Dual objective     =          8571.999046
Removing perturbation.

Iteration log . . .
Iteration:     1   Dual objective     =          8572.000000
Root relaxation solution time = 0.95 sec. (570.49 ticks)

        Nodes                                         Cuts/
   Node  Left     Objective  IInf  Best Integer    Best Bound    ItCnt     Gap

      0     0     8572.0000  1592                   8572.0000     7635         
      0     0     8572.0000   577                     Cuts: 6     8540         
      0     0     8572.0000   750                    Cuts: 84     9925         
      0     0     8572.0000   208                 ZeroHalf: 6     9941         
      0     0     8572.0000   218                ZeroHalf: 32    10481         
*     0+    0                         8572.0000     8572.0000             0.00%
Found incumbent of value 8572.000000 after 7.69 sec. (4615.49 ticks)
      0     0        cutoff           8572.0000     8572.0000    10481    0.00%
Elapsed time = 7.69 sec. (4615.49 ticks, tree = 0.01 MB, solutions = 1)

Zero-half cuts applied:  31
Lift and project cuts applied:  5
Gomory fractional cuts applied:  9

Root node processing (before b&c):
  Real time             =    7.69 sec. (4616.04 ticks)
Sequential b&c:
  Real time             =    0.00 sec. (0.00 ticks)
                          ------------
Total (root+branch&cut) =    7.69 sec. (4616.04 ticks)

--- MIP status (101): integer optimal solution.
--- Cplex Time: 7.69sec (det. 4616.08 ticks)

--- Fixing integer variables and solving final LP...

Version identifier: 20.1.0.1 | 2021-04-07 | 3a818710c
CPXPARAM_Advance                                 2
CPXPARAM_Threads                                 1
CPXPARAM_MIP_Display                             4
CPXPARAM_TimeLimit                               3600
CPXPARAM_MIP_Tolerances_AbsMIPGap                0
Tried aggregator 1 time.
LP Presolve eliminated 16769 rows and 12290 columns.
All rows and columns eliminated.
Presolve time = 0.02 sec. (7.09 ticks)

--- Fixed MIP status (1): optimal.
--- Cplex Time: 0.02sec (det. 12.43 ticks)


Proven optimal solution
MIP Solution:         8572.000000    (10481 iterations, 0 nodes)
Final Solve:          8572.000000    (0 iterations)

Best possible:        8572.000000
Absolute gap:            0.000000
Relative gap:            0.000000

--- Reading solution for model mymodel
--- gams_0064_002_32_04_0.67_05_0.25_0.90_26_problem.txt(6677) 9 Mb  7 secs
--- Executing after solve: elapsed 0:00:08.037
--- gams_0064_002_32_04_0.67_05_0.25_0.90_26_problem.txt(6678) 9 Mb--- gams_0064_002_32_04_0.67_05_0.25_0.90_26_problem.txt(6698) 9 Mb
--- Putfile results C:\Users\MariaSosnovskaya\Downloads\WfmGams3\problems\gams_0064_002_32_04_0.67_05_0.25_0.90_26_results.txt
*** Status: Normal completion
--- Job gams_0064_002_32_04_0.67_05_0.25_0.90_26_problem.txt Stop 02/24/21 20:04:32 elapsed 0:00:08.057
